* ENCODING=ISO-8859-1
NAME          ./convert/K5030W05.KNP.mps
ROWS
 N  OBJROW            
 L  R0000000          
 L  IC0               
 L  IC1               
 L  IC2               
 L  IC3               
 L  IC4               
 L  IC5               
 L  IC6               
 L  IC7               
 L  IC8               
 L  IC9               
 L  IC10              
 L  IC11              
 L  IC12              
 L  IC13              
 L  IC14              
 L  IC15              
 L  IC16              
 L  IC17              
 L  IC18              
 L  IC19              
 L  IC20              
 L  IC21              
 L  IC22              
 L  IC23              
 L  IC24              
 L  IC25              
 L  IC26              
 L  IC27              
 L  IC28              
 L  IC29              
 L  interdictionBudget
COLUMNS
    MARK0000  'MARKER'                 'INTORG'
    C0000000            OBJROW                                  816
    C0000000            R0000000                                332
    C0000000            IC0                                       1
    C0000001            OBJROW                                  651
    C0000001            R0000000                                150
    C0000001            IC1                                       1
    C0000002            OBJROW                                  768
    C0000002            R0000000                                780
    C0000002            IC2                                       1
    C0000003            OBJROW                                  937
    C0000003            R0000000                                158
    C0000003            IC3                                       1
    C0000004            OBJROW                                  530
    C0000004            R0000000                                173
    C0000004            IC4                                       1
    C0000005            OBJROW                                  593
    C0000005            R0000000                                990
    C0000005            IC5                                       1
    C0000006            OBJROW                                  896
    C0000006            R0000000                                451
    C0000006            IC6                                       1
    C0000007            OBJROW                                  739
    C0000007            R0000000                                471
    C0000007            IC7                                       1
    C0000008            OBJROW                                   70
    C0000008            R0000000                                115
    C0000008            IC8                                       1
    C0000009            OBJROW                                  885
    C0000009            R0000000                                480
    C0000009            IC9                                       1
    C0000010            OBJROW                                  534
    C0000010            R0000000                                363
    C0000010            IC10                                      1
    C0000011            OBJROW                                  411
    C0000011            R0000000                                168
    C0000011            IC11                                      1
    C0000012            OBJROW                                  584
    C0000012            R0000000                                507
    C0000012            IC12                                      1
    C0000013            OBJROW                                  465
    C0000013            R0000000                                134
    C0000013            IC13                                      1
    C0000014            OBJROW                                  482
    C0000014            R0000000                                980
    C0000014            IC14                                      1
    C0000015            OBJROW                                  119
    C0000015            R0000000                                438
    C0000015            IC15                                      1
    C0000016            OBJROW                                  172
    C0000016            R0000000                                597
    C0000016            IC16                                      1
    C0000017            OBJROW                                  183
    C0000017            R0000000                                758
    C0000017            IC17                                      1
    C0000018            OBJROW                                  362
    C0000018            R0000000                                797
    C0000018            IC18                                      1
    C0000019            OBJROW                                  321
    C0000019            R0000000                                886
    C0000019            IC19                                      1
    C0000020            OBJROW                                   64
    C0000020            R0000000                                285
    C0000020            IC20                                      1
    C0000021            OBJROW                                  235
    C0000021            R0000000                                702
    C0000021            IC21                                      1
    C0000022            OBJROW                                  568
    C0000022            R0000000                                795
    C0000022            IC22                                      1
    C0000023            OBJROW                                  851
    C0000023            R0000000                                999
    C0000023            IC23                                      1
    C0000024            OBJROW                                  702
    C0000024            R0000000                                979
    C0000024            IC24                                      1
    C0000025            OBJROW                                  940
    C0000025            R0000000                                415
    C0000025            IC25                                      1
    C0000026            OBJROW                                  535
    C0000026            R0000000                                228
    C0000026            IC26                                      1
    C0000027            OBJROW                                  356
    C0000027            R0000000                                789
    C0000027            IC27                                      1
    C0000028            OBJROW                                  471
    C0000028            R0000000                                622
    C0000028            IC28                                      1
    C0000029            OBJROW                                  924
    C0000029            R0000000                                883
    C0000029            IC29                                      1
    x0                  IC0                                       1
    x0                  interdictionBudget                      954
    x1                  IC1                                       1
    x1                  interdictionBudget                       95
    x2                  IC2                                       1
    x2                  interdictionBudget                      867
    x3                  IC3                                       1
    x3                  interdictionBudget                      791
    x4                  IC4                                       1
    x4                  interdictionBudget                      476
    x5                  IC5                                       1
    x5                  interdictionBudget                      589
    x6                  IC6                                       1
    x6                  interdictionBudget                      349
    x7                  IC7                                       1
    x7                  interdictionBudget                      102
    x8                  IC8                                       1
    x8                  interdictionBudget                      203
    x9                  IC9                                       1
    x9                  interdictionBudget                      911
    x10                 IC10                                      1
    x10                 interdictionBudget                      563
    x11                 IC11                                      1
    x11                 interdictionBudget                      271
    x12                 IC12                                      1
    x12                 interdictionBudget                      940
    x13                 IC13                                      1
    x13                 interdictionBudget                      253
    x14                 IC14                                      1
    x14                 interdictionBudget                      293
    x15                 IC15                                      1
    x15                 interdictionBudget                      470
    x16                 IC16                                      1
    x16                 interdictionBudget                      229
    x17                 IC17                                      1
    x17                 interdictionBudget                        6
    x18                 IC18                                      1
    x18                 interdictionBudget                      477
    x19                 IC19                                      1
    x19                 interdictionBudget                      580
    x20                 IC20                                      1
    x20                 interdictionBudget                      167
    x21                 IC21                                      1
    x21                 interdictionBudget                      322
    x22                 IC22                                      1
    x22                 interdictionBudget                       73
    x23                 IC23                                      1
    x23                 interdictionBudget                      562
    x24                 IC24                                      1
    x24                 interdictionBudget                      191
    x25                 IC25                                      1
    x25                 interdictionBudget                      627
    x26                 IC26                                      1
    x26                 interdictionBudget                      479
    x27                 IC27                                      1
    x27                 interdictionBudget                      476
    x28                 IC28                                      1
    x28                 interdictionBudget                      519
    x29                 IC29                                      1
    x29                 interdictionBudget                      412
    MARK0001  'MARKER'                 'INTEND'
RHS
    rhs                 R0000000                               8212
    rhs                 IC0                                       1
    rhs                 IC1                                       1
    rhs                 IC2                                       1
    rhs                 IC3                                       1
    rhs                 IC4                                       1
    rhs                 IC5                                       1
    rhs                 IC6                                       1
    rhs                 IC7                                       1
    rhs                 IC8                                       1
    rhs                 IC9                                       1
    rhs                 IC10                                      1
    rhs                 IC11                                      1
    rhs                 IC12                                      1
    rhs                 IC13                                      1
    rhs                 IC14                                      1
    rhs                 IC15                                      1
    rhs                 IC16                                      1
    rhs                 IC17                                      1
    rhs                 IC18                                      1
    rhs                 IC19                                      1
    rhs                 IC20                                      1
    rhs                 IC21                                      1
    rhs                 IC22                                      1
    rhs                 IC23                                      1
    rhs                 IC24                                      1
    rhs                 IC25                                      1
    rhs                 IC26                                      1
    rhs                 IC27                                      1
    rhs                 IC28                                      1
    rhs                 IC29                                      1
    rhs                 interdictionBudget                     6624
BOUNDS
 UP bnd                 C0000000                                  1
 UP bnd                 C0000001                                  1
 UP bnd                 C0000002                                  1
 UP bnd                 C0000003                                  1
 UP bnd                 C0000004                                  1
 UP bnd                 C0000005                                  1
 UP bnd                 C0000006                                  1
 UP bnd                 C0000007                                  1
 UP bnd                 C0000008                                  1
 UP bnd                 C0000009                                  1
 UP bnd                 C0000010                                  1
 UP bnd                 C0000011                                  1
 UP bnd                 C0000012                                  1
 UP bnd                 C0000013                                  1
 UP bnd                 C0000014                                  1
 UP bnd                 C0000015                                  1
 UP bnd                 C0000016                                  1
 UP bnd                 C0000017                                  1
 UP bnd                 C0000018                                  1
 UP bnd                 C0000019                                  1
 UP bnd                 C0000020                                  1
 UP bnd                 C0000021                                  1
 UP bnd                 C0000022                                  1
 UP bnd                 C0000023                                  1
 UP bnd                 C0000024                                  1
 UP bnd                 C0000025                                  1
 UP bnd                 C0000026                                  1
 UP bnd                 C0000027                                  1
 UP bnd                 C0000028                                  1
 UP bnd                 C0000029                                  1
 UP bnd                 x0                                        1
 UP bnd                 x1                                        1
 UP bnd                 x2                                        1
 UP bnd                 x3                                        1
 UP bnd                 x4                                        1
 UP bnd                 x5                                        1
 UP bnd                 x6                                        1
 UP bnd                 x7                                        1
 UP bnd                 x8                                        1
 UP bnd                 x9                                        1
 UP bnd                 x10                                       1
 UP bnd                 x11                                       1
 UP bnd                 x12                                       1
 UP bnd                 x13                                       1
 UP bnd                 x14                                       1
 UP bnd                 x15                                       1
 UP bnd                 x16                                       1
 UP bnd                 x17                                       1
 UP bnd                 x18                                       1
 UP bnd                 x19                                       1
 UP bnd                 x20                                       1
 UP bnd                 x21                                       1
 UP bnd                 x22                                       1
 UP bnd                 x23                                       1
 UP bnd                 x24                                       1
 UP bnd                 x25                                       1
 UP bnd                 x26                                       1
 UP bnd                 x27                                       1
 UP bnd                 x28                                       1
 UP bnd                 x29                                       1
ENDATA
